
******************************************************************************
This program contains Ipopt, a library for large-scale nonlinear optimization.
 Ipopt is released as open source code under the Eclipse Public License (EPL).
         For more information visit http://projects.coin-or.org/Ipopt

This version of Ipopt was compiled from source code available at
    https://github.com/IDAES/Ipopt as part of the Institute for the Design of
    Advanced Energy Systems Process Systems Engineering Framework (IDAES PSE
    Framework) Copyright (c) 2018-2019. See https://github.com/IDAES/idaes-pse.

This version of Ipopt was compiled using HSL, a collection of Fortran codes
    for large-scale scientific computation.  All technical papers, sales and
    publicity material resulting from use of the HSL codes within IPOPT must
    contain the following acknowledgement:
        HSL, a collection of Fortran codes for large-scale scientific
        computation. See http://www.hsl.rl.ac.uk.
******************************************************************************

This is Ipopt version 3.13.2, running with linear solver ma27.

Number of nonzeros in equality constraint Jacobian...:      808
Number of nonzeros in inequality constraint Jacobian.:        0
Number of nonzeros in Lagrangian Hessian.............:      702

Total number of variables............................:      351
                     variables with only lower bounds:      108
                variables with lower and upper bounds:      189
                     variables with only upper bounds:        0
Total number of equality constraints.................:      350
Total number of inequality constraints...............:        0
        inequality constraints with only lower bounds:        0
   inequality constraints with lower and upper bounds:        0
        inequality constraints with only upper bounds:        0

iter    objective    inf_pr   inf_du lg(mu)  ||d||  lg(rg) alpha_du alpha_pr  ls
   0  0.0000000e+00 4.40e-01 2.84e-14  -1.0 0.00e+00    -  0.00e+00 0.00e+00   0
   1  5.2640618e-01 2.71e-01 2.87e+04  -1.0 1.27e+05    -  7.47e-01 3.87e-01h  1
   2  5.4547647e-01 2.68e-01 2.87e+04  -1.0 8.23e+04    -  8.75e-01 1.20e-02h  1
   3  7.8760133e+00 7.42e-02 1.61e+04  -1.0 2.04e+05    -  7.83e-01 7.95e-01h  1
   4  1.4184702e+01 3.32e-03 2.03e+03  -1.0 6.48e+04    -  9.28e-01 9.90e-01h  1
   5  1.4489773e+01 3.88e-05 1.21e+01  -1.0 2.70e+03    -  9.90e-01 9.90e-01h  1
   6  1.4491924e+01 3.76e-05 7.74e+05  -1.0 5.76e+02    -  9.90e-01 3.09e-02f  6
   7  1.4497420e+01 3.64e-05 1.55e+06  -1.0 1.47e+03    -  9.90e-01 3.09e-02f  6
   8  1.4666446e+01 1.47e-05 2.41e+04  -1.0 1.41e+03    -  1.00e+00 9.90e-01H  1
   9  1.4666246e+01 1.47e-07 8.59e+05  -1.0 1.70e+00    -  1.00e+00 9.90e-01h  1
iter    objective    inf_pr   inf_du lg(mu)  ||d||  lg(rg) alpha_du alpha_pr  ls
  10  1.4666246e+01 1.47e-09 8.59e+07  -1.0 1.68e-03    -  1.00e+00 9.90e-01h  1
  11  1.4666246e+01 9.31e-11 8.59e+09  -1.0 1.67e-05    -  1.00e+00 9.90e-01h  1
In iteration 11, 27 Slacks too small, adjusting variable bounds
  12  1.4666246e+01 1.61e-10 8.59e+11  -1.0 1.82e-07    -  1.00e+00 9.90e-01h  1
  13  1.4666246e+01 2.75e-11 5.86e-03  -1.0 7.82e-08    -  1.00e+00 1.00e+00h  1
  14  1.4666225e+01 4.67e-11 8.75e+11  -9.0 2.37e+03    -  9.98e-01 7.36e-05f 14
  15  1.4666204e+01 7.62e-11 8.76e+11  -9.0 1.50e+03    -  9.99e-01 1.17e-04f 14
  16  1.4666183e+01 2.08e-11 8.76e+11  -9.0 1.43e+03    -  1.00e+00 1.22e-04f 14
  17  1.4666161e+01 5.05e-11 8.76e+11  -9.0 1.43e+03    -  1.00e+00 1.22e-04f 14
  18  1.4666161e+01 6.74e-11 8.76e+11  -9.0 1.43e+03    -  1.00e+00 3.81e-06f 19
  19  1.4492726e+01 2.89e-04 1.78e+06  -9.0 1.43e+03    -  1.00e+00 1.00e+00f  1
iter    objective    inf_pr   inf_du lg(mu)  ||d||  lg(rg) alpha_du alpha_pr  ls
  20  1.4491764e+01 1.26e-08 2.48e-04  -9.0 7.98e+00    -  1.00e+00 1.00e+00h  1
  21  1.4491764e+01 1.80e-10 2.61e-12  -9.0 2.87e-05    -  1.00e+00 1.00e+00h  1

Number of Iterations....: 21

                                   (scaled)                 (unscaled)
Objective...............:   1.4491764053950220e+01    1.4491764053950220e+01
Dual infeasibility......:   2.6123897460455752e-12    2.6123897460455752e-12
Constraint violation....:   1.8026202752707832e-10    1.8026202752707832e-10
Complementarity.........:   9.0909091056517470e-10    9.0909091056517470e-10
Overall NLP error.......:   2.0738139726761726e-10    9.0909091056517470e-10


Number of objective function evaluations             = 123
Number of objective gradient evaluations             = 22
Number of equality constraint evaluations            = 123
Number of inequality constraint evaluations          = 0
Number of equality constraint Jacobian evaluations   = 22
Number of inequality constraint Jacobian evaluations = 0
Number of Lagrangian Hessian evaluations             = 21
Total CPU secs in IPOPT (w/o function evaluations)   =      0.054
Total CPU secs in NLP function evaluations           =      1.035

EXIT: Optimal Solution Found.
